n_trains = 20;
n_tracks = 5;
tracks = [{1, 2},{3, 4, 5},{6, 7, 8, 9, 10},{11, 12, 13, 14, 15},{16, 17, 18, 19, 20}];
arrival_order = [1, 4, 20, 14, 7, 10, 6, 2, 9, 19, 13, 11, 17, 5, 16, 8, 12, 18, 15, 3];
departure_order = [20, 19, 18, 17, 16, 15, 14, 13, 12, 11, 10, 9, 8, 7, 6, 5, 4, 3, 2, 1];
